p cnf 911 1631              
9 50 0
-17 50 0
-9 17 -50 0
10 51 0
-18 51 0
-10 18 -51 0
11 52 0
-19 52 0
-11 19 -52 0
12 53 0
-20 53 0
-12 20 -53 0
13 54 0
-21 54 0
-13 21 -54 0
14 55 0
-22 55 0
-14 22 -55 0
15 56 0
-23 56 0
-15 23 -56 0
16 57 0
-24 57 0
-16 24 -57 0
-50 -51 -52 -53 -54 -55 -56 -57 58 0
17 59 0
-9 59 0
18 60 0
-10 60 0
19 61 0
-11 61 0
20 62 0
-12 62 0
21 63 0
-13 63 0
22 64 0
-14 64 0
23 65 0
-15 65 0
24 66 0
-16 66 0
-59 -60 -61 -62 -63 -64 -65 -66 67 0
-58 -67 68 0
-68 -871 0
-10 -9 -25 0
25 -27 0
9 10 -26 0
26 -27 0
27 -49 0
-12 -11 -28 0
28 -30 0
11 12 -29 0
29 -30 0
30 -49 0
-14 -13 -31 0
31 -33 0
13 14 -32 0
32 -33 0
33 -49 0
-16 -15 -34 0
34 -36 0
15 16 -35 0
35 -36 0
36 -49 0
-18 -17 -37 0
37 -39 0
17 18 -38 0
38 -39 0
39 -49 0
-20 -19 -40 0
40 -42 0
19 20 -41 0
41 -42 0
42 -49 0
-22 -21 -43 0
43 -45 0
21 22 -44 0
44 -45 0
45 -49 0
-24 -23 -46 0
46 -48 0
23 24 -47 0
47 -48 0
48 -49 0
49 -871 0
-9 -69 0
10 -69 0
9 -10 69 0
-1 69 -70 0
1 -69 -70 0
69 -69 -70 0
70 -85 0
-11 -71 0
12 -71 0
11 -12 71 0
-2 71 -72 0
2 -71 -72 0
71 -71 -72 0
72 -85 0
-13 -73 0
14 -73 0
13 -14 73 0
-3 73 -74 0
3 -73 -74 0
73 -73 -74 0
74 -85 0
-15 -75 0
16 -75 0
15 -16 75 0
-4 75 -76 0
4 -75 -76 0
75 -75 -76 0
76 -85 0
-17 -77 0
18 -77 0
17 -18 77 0
-5 77 -78 0
5 -77 -78 0
77 -77 -78 0
78 -85 0
-19 -79 0
20 -79 0
19 -20 79 0
-6 79 -80 0
6 -79 -80 0
79 -79 -80 0
80 -85 0
-21 -81 0
22 -81 0
21 -22 81 0
-7 81 -82 0
7 -81 -82 0
81 -81 -82 0
82 -85 0
-23 -83 0
24 -83 0
23 -24 83 0
-8 83 -84 0
8 -83 -84 0
83 -83 -84 0
84 -85 0
85 -871 0
-16 -674 0
-14 -674 0
-11 -674 0
-9 -674 0
16 14 11 9 674 0
674 -676 0
10 -675 0
12 -675 0
13 -675 0
15 -675 0
-10 -12 -13 -15 675 0
675 -676 0
-674 -675 676 0
-24 -677 0
-22 -677 0
-19 -677 0
-17 -677 0
24 22 19 17 677 0
677 -679 0
18 -678 0
20 -678 0
21 -678 0
23 -678 0
-18 -20 -21 -23 678 0
678 -679 0
-677 -678 679 0
676 679 -680 0
680 -701 0
4 -684 0
676 -684 0
-4 -676 684 0
-684 692 0
8 -688 0
679 -688 0
-8 -679 688 0
-688 692 0
684 688 -692 0
692 -701 0
680 -700 0
3 -683 0
676 -683 0
-3 -676 683 0
-683 691 0
7 -687 0
679 -687 0
-7 -679 687 0
-687 691 0
683 687 -691 0
691 -700 0
701 700 722 0
-16 -576 0
-13 -576 0
-12 -576 0
-9 -576 0
16 13 12 9 576 0
576 -578 0
10 -577 0
11 -577 0
14 -577 0
15 -577 0
-10 -11 -14 -15 577 0
577 -578 0
-576 -577 578 0
-24 -579 0
-21 -579 0
-20 -579 0
-17 -579 0
24 21 20 17 579 0
579 -581 0
18 -580 0
19 -580 0
22 -580 0
23 -580 0
-18 -19 -22 -23 580 0
580 -581 0
-579 -580 581 0
578 581 -582 0
582 -603 0
4 -586 0
578 -586 0
-4 -578 586 0
-586 594 0
8 -590 0
581 -590 0
-8 -581 590 0
-590 594 0
586 590 -594 0
594 -603 0
582 -601 0
2 -584 0
578 -584 0
-2 -578 584 0
-584 592 0
6 -588 0
581 -588 0
-6 -581 588 0
-588 592 0
584 588 -592 0
592 -601 0
603 601 622 0
-15 -527 0
-14 -527 0
-12 -527 0
-9 -527 0
15 14 12 9 527 0
527 -529 0
10 -528 0
11 -528 0
13 -528 0
16 -528 0
-10 -11 -13 -16 528 0
528 -529 0
-527 -528 529 0
-23 -530 0
-22 -530 0
-20 -530 0
-17 -530 0
23 22 20 17 530 0
530 -532 0
18 -531 0
19 -531 0
21 -531 0
24 -531 0
-18 -19 -21 -24 531 0
531 -532 0
-530 -531 532 0
529 532 -533 0
533 -553 0
3 -536 0
529 -536 0
-3 -529 536 0
-536 544 0
7 -540 0
532 -540 0
-7 -532 540 0
-540 544 0
536 540 -544 0
544 -553 0
533 -552 0
2 -535 0
529 -535 0
-2 -529 535 0
-535 543 0
6 -539 0
532 -539 0
-6 -532 539 0
-539 543 0
535 539 -543 0
543 -552 0
553 552 571 0
-16 -478 0
-14 -478 0
-12 -478 0
-9 -478 0
16 14 12 9 478 0
478 -480 0
10 -479 0
11 -479 0
13 -479 0
15 -479 0
-10 -11 -13 -15 479 0
479 -480 0
-478 -479 480 0
-24 -481 0
-22 -481 0
-20 -481 0
-17 -481 0
24 22 20 17 481 0
481 -483 0
18 -482 0
19 -482 0
21 -482 0
23 -482 0
-18 -19 -21 -23 482 0
482 -483 0
-481 -482 483 0
480 483 -484 0
484 -505 0
4 -488 0
480 -488 0
-4 -480 488 0
-488 496 0
8 -492 0
483 -492 0
-8 -483 492 0
-492 496 0
488 492 -496 0
496 -505 0
484 -504 0
3 -487 0
480 -487 0
-3 -480 487 0
-487 495 0
7 -491 0
483 -491 0
-7 -483 491 0
-491 495 0
487 491 -495 0
495 -504 0
505 504 526 0
484 -503 0
2 -486 0
480 -486 0
-2 -480 486 0
-486 494 0
6 -490 0
483 -490 0
-6 -483 490 0
-490 494 0
486 490 -494 0
494 -503 0
505 503 524 0
504 503 522 0
505 504 503 520 0
-16 -380 0
-13 -380 0
-11 -380 0
-10 -380 0
16 13 11 10 380 0
380 -382 0
9 -381 0
12 -381 0
14 -381 0
15 -381 0
-9 -12 -14 -15 381 0
381 -382 0
-380 -381 382 0
-24 -383 0
-21 -383 0
-19 -383 0
-18 -383 0
24 21 19 18 383 0
383 -385 0
17 -384 0
20 -384 0
22 -384 0
23 -384 0
-17 -20 -22 -23 384 0
384 -385 0
-383 -384 385 0
382 385 -386 0
386 -407 0
4 -390 0
382 -390 0
-4 -382 390 0
-390 398 0
8 -394 0
385 -394 0
-8 -385 394 0
-394 398 0
390 394 -398 0
398 -407 0
386 -404 0
1 -387 0
382 -387 0
-1 -382 387 0
-387 395 0
5 -391 0
385 -391 0
-5 -385 391 0
-391 395 0
387 391 -395 0
395 -404 0
407 404 420 0
-15 -331 0
-14 -331 0
-11 -331 0
-10 -331 0
15 14 11 10 331 0
331 -333 0
9 -332 0
12 -332 0
13 -332 0
16 -332 0
-9 -12 -13 -16 332 0
332 -333 0
-331 -332 333 0
-23 -334 0
-22 -334 0
-19 -334 0
-18 -334 0
23 22 19 18 334 0
334 -336 0
17 -335 0
20 -335 0
21 -335 0
24 -335 0
-17 -20 -21 -24 335 0
335 -336 0
-334 -335 336 0
333 336 -337 0
337 -357 0
3 -340 0
333 -340 0
-3 -333 340 0
-340 348 0
7 -344 0
336 -344 0
-7 -336 344 0
-344 348 0
340 344 -348 0
348 -357 0
337 -355 0
1 -338 0
333 -338 0
-1 -333 338 0
-338 346 0
5 -342 0
336 -342 0
-5 -336 342 0
-342 346 0
338 342 -346 0
346 -355 0
357 355 369 0
-16 -282 0
-14 -282 0
-11 -282 0
-10 -282 0
16 14 11 10 282 0
282 -284 0
9 -283 0
12 -283 0
13 -283 0
15 -283 0
-9 -12 -13 -15 283 0
283 -284 0
-282 -283 284 0
-24 -285 0
-22 -285 0
-19 -285 0
-18 -285 0
24 22 19 18 285 0
285 -287 0
17 -286 0
20 -286 0
21 -286 0
23 -286 0
-17 -20 -21 -23 286 0
286 -287 0
-285 -286 287 0
284 287 -288 0
288 -309 0
4 -292 0
284 -292 0
-4 -284 292 0
-292 300 0
8 -296 0
287 -296 0
-8 -287 296 0
-296 300 0
292 296 -300 0
300 -309 0
288 -308 0
3 -291 0
284 -291 0
-3 -284 291 0
-291 299 0
7 -295 0
287 -295 0
-7 -287 295 0
-295 299 0
291 295 -299 0
299 -308 0
309 308 330 0
288 -306 0
1 -289 0
284 -289 0
-1 -284 289 0
-289 297 0
5 -293 0
287 -293 0
-5 -287 293 0
-293 297 0
289 293 -297 0
297 -306 0
309 306 322 0
308 306 320 0
309 308 306 318 0
-15 -233 0
-13 -233 0
-12 -233 0
-10 -233 0
15 13 12 10 233 0
233 -235 0
9 -234 0
11 -234 0
14 -234 0
16 -234 0
-9 -11 -14 -16 234 0
234 -235 0
-233 -234 235 0
-23 -236 0
-21 -236 0
-20 -236 0
-18 -236 0
23 21 20 18 236 0
236 -238 0
17 -237 0
19 -237 0
22 -237 0
24 -237 0
-17 -19 -22 -24 237 0
237 -238 0
-236 -237 238 0
235 238 -239 0
239 -258 0
2 -241 0
235 -241 0
-2 -235 241 0
-241 249 0
6 -245 0
238 -245 0
-6 -238 245 0
-245 249 0
241 245 -249 0
249 -258 0
239 -257 0
1 -240 0
235 -240 0
-1 -235 240 0
-240 248 0
5 -244 0
238 -244 0
-5 -238 244 0
-244 248 0
240 244 -248 0
248 -257 0
258 257 267 0
-16 -184 0
-13 -184 0
-12 -184 0
-10 -184 0
16 13 12 10 184 0
184 -186 0
9 -185 0
11 -185 0
14 -185 0
15 -185 0
-9 -11 -14 -15 185 0
185 -186 0
-184 -185 186 0
-24 -187 0
-21 -187 0
-20 -187 0
-18 -187 0
24 21 20 18 187 0
187 -189 0
17 -188 0
19 -188 0
22 -188 0
23 -188 0
-17 -19 -22 -23 188 0
188 -189 0
-187 -188 189 0
186 189 -190 0
190 -211 0
4 -194 0
186 -194 0
-4 -186 194 0
-194 202 0
8 -198 0
189 -198 0
-8 -189 198 0
-198 202 0
194 198 -202 0
202 -211 0
190 -209 0
2 -192 0
186 -192 0
-2 -186 192 0
-192 200 0
6 -196 0
189 -196 0
-6 -189 196 0
-196 200 0
192 196 -200 0
200 -209 0
211 209 230 0
190 -208 0
1 -191 0
186 -191 0
-1 -186 191 0
-191 199 0
5 -195 0
189 -195 0
-5 -189 195 0
-195 199 0
191 195 -199 0
199 -208 0
211 208 224 0
209 208 218 0
211 209 208 216 0
-15 -135 0
-14 -135 0
-12 -135 0
-10 -135 0
15 14 12 10 135 0
135 -137 0
9 -136 0
11 -136 0
13 -136 0
16 -136 0
-9 -11 -13 -16 136 0
136 -137 0
-135 -136 137 0
-23 -138 0
-22 -138 0
-20 -138 0
-18 -138 0
23 22 20 18 138 0
138 -140 0
17 -139 0
19 -139 0
21 -139 0
24 -139 0
-17 -19 -21 -24 139 0
139 -140 0
-138 -139 140 0
137 140 -141 0
141 -161 0
3 -144 0
137 -144 0
-3 -137 144 0
-144 152 0
7 -148 0
140 -148 0
-7 -140 148 0
-148 152 0
144 148 -152 0
152 -161 0
141 -160 0
2 -143 0
137 -143 0
-2 -137 143 0
-143 151 0
6 -147 0
140 -147 0
-6 -140 147 0
-147 151 0
143 147 -151 0
151 -160 0
161 160 179 0
141 -159 0
1 -142 0
137 -142 0
-1 -137 142 0
-142 150 0
5 -146 0
140 -146 0
-5 -140 146 0
-146 150 0
142 146 -150 0
150 -159 0
161 159 173 0
160 159 169 0
161 160 159 165 0
-16 -86 0
-14 -86 0
-12 -86 0
-10 -86 0
86 -88 0
9 -87 0
11 -87 0
13 -87 0
15 -87 0
87 -88 0
-24 -89 0
-22 -89 0
-20 -89 0
-18 -89 0
89 -91 0
17 -90 0
19 -90 0
21 -90 0
23 -90 0
90 -91 0
88 91 -92 0
92 -113 0
4 -96 0
88 -96 0
8 -100 0
91 -100 0
96 100 -104 0
104 -113 0
92 -112 0
3 -95 0
88 -95 0
7 -99 0
91 -99 0
95 99 -103 0
103 -112 0
113 112 134 0
92 -111 0
2 -94 0
88 -94 0
6 -98 0
91 -98 0
94 98 -102 0
102 -111 0
113 111 132 0
112 111 130 0
113 112 111 128 0
92 -110 0
1 -93 0
88 -93 0
5 -97 0
91 -97 0
93 97 -101 0
101 -110 0
113 110 126 0
112 110 124 0
113 112 110 122 0
111 110 120 0
113 111 110 118 0
112 111 110 116 0
113 112 111 110 114 0
-4 -137 145 0
-145 153 0
-8 -140 149 0
-149 153 0
-153 -157 0
141 -157 0
-150 -154 0
141 -154 0
154 -158 0
-151 -155 0
141 -155 0
155 -158 0
-152 -156 0
141 -156 0
156 -158 0
157 -158 0
154 -166 0
155 -166 0
157 -166 0
154 -170 0
156 -170 0
157 -170 0
154 -174 0
157 -174 0
155 -176 0
156 -176 0
157 -176 0
155 -180 0
157 -180 0
156 -182 0
157 -182 0
-3 -186 193 0
-193 201 0
-7 -189 197 0
-197 201 0
-201 -205 0
190 -205 0
-199 -203 0
190 -203 0
203 -207 0
-200 -204 0
190 -204 0
204 -207 0
205 -207 0
-202 -206 0
190 -206 0
206 -207 0
203 -213 0
204 -213 0
205 -213 0
203 -219 0
205 -219 0
206 -219 0
203 -221 0
205 -221 0
204 -225 0
205 -225 0
206 -225 0
204 -227 0
205 -227 0
205 -231 0
206 -231 0
-3 -235 242 0
-242 250 0
-7 -238 246 0
-246 250 0
-250 -254 0
239 -254 0
-4 -235 243 0
-243 251 0
-8 -238 247 0
-247 251 0
-251 -255 0
239 -255 0
-248 -252 0
239 -252 0
252 -256 0
-249 -253 0
239 -253 0
253 -256 0
254 -256 0
255 -256 0
252 -262 0
253 -262 0
254 -262 0
252 -264 0
253 -264 0
255 -264 0
252 -268 0
254 -268 0
255 -268 0
252 -270 0
254 -270 0
252 -272 0
255 -272 0
253 -274 0
254 -274 0
255 -274 0
253 -276 0
254 -276 0
253 -278 0
255 -278 0
254 -280 0
255 -280 0
-2 -284 290 0
-290 298 0
-6 -287 294 0
-294 298 0
-298 -302 0
288 -302 0
-297 -301 0
288 -301 0
301 -305 0
302 -305 0
-299 -303 0
288 -303 0
303 -305 0
-300 -304 0
288 -304 0
304 -305 0
301 -311 0
302 -311 0
303 -311 0
301 -313 0
302 -313 0
304 -313 0
301 -315 0
302 -315 0
302 -323 0
303 -323 0
304 -323 0
302 -325 0
303 -325 0
302 -327 0
304 -327 0
-2 -333 339 0
-339 347 0
-6 -336 343 0
-343 347 0
-347 -351 0
337 -351 0
-4 -333 341 0
-341 349 0
-8 -336 345 0
-345 349 0
-349 -353 0
337 -353 0
-346 -350 0
337 -350 0
350 -354 0
351 -354 0
-348 -352 0
337 -352 0
352 -354 0
353 -354 0
350 -360 0
351 -360 0
352 -360 0
350 -362 0
351 -362 0
353 -362 0
350 -364 0
351 -364 0
350 -366 0
352 -366 0
353 -366 0
350 -370 0
353 -370 0
351 -372 0
352 -372 0
353 -372 0
351 -374 0
352 -374 0
351 -376 0
353 -376 0
352 -378 0
353 -378 0
-2 -382 388 0
-388 396 0
-6 -385 392 0
-392 396 0
-396 -400 0
386 -400 0
-3 -382 389 0
-389 397 0
-7 -385 393 0
-393 397 0
-397 -401 0
386 -401 0
-395 -399 0
386 -399 0
399 -403 0
400 -403 0
401 -403 0
-398 -402 0
386 -402 0
402 -403 0
399 -409 0
400 -409 0
401 -409 0
399 -411 0
400 -411 0
402 -411 0
399 -413 0
400 -413 0
399 -415 0
401 -415 0
402 -415 0
399 -417 0
401 -417 0
400 -421 0
401 -421 0
402 -421 0
400 -423 0
401 -423 0
400 -425 0
402 -425 0
401 -427 0
402 -427 0
-15 -429 0
-13 -429 0
-11 -429 0
-10 -429 0
15 13 11 10 429 0
429 -431 0
9 -430 0
12 -430 0
14 -430 0
16 -430 0
-9 -12 -14 -16 430 0
430 -431 0
-429 -430 431 0
-2 -431 437 0
-437 445 0
-23 -432 0
-21 -432 0
-19 -432 0
-18 -432 0
23 21 19 18 432 0
432 -434 0
17 -433 0
20 -433 0
22 -433 0
24 -433 0
-17 -20 -22 -24 433 0
433 -434 0
-432 -433 434 0
-6 -434 441 0
-441 445 0
-445 -449 0
431 434 -435 0
435 -449 0
-3 -431 438 0
-438 446 0
-7 -434 442 0
-442 446 0
-446 -450 0
435 -450 0
-4 -431 439 0
-439 447 0
-8 -434 443 0
-443 447 0
-447 -451 0
435 -451 0
1 -436 0
431 -436 0
-1 -431 436 0
-436 444 0
5 -440 0
434 -440 0
-5 -434 440 0
-440 444 0
436 440 -444 0
-444 -448 0
435 -448 0
448 -452 0
449 -452 0
450 -452 0
451 -452 0
435 -453 0
444 -453 0
448 -458 0
449 -458 0
450 -458 0
448 -460 0
449 -460 0
451 -460 0
448 -462 0
449 -462 0
448 -464 0
450 -464 0
451 -464 0
448 -466 0
450 -466 0
448 -468 0
451 -468 0
449 -470 0
450 -470 0
451 -470 0
449 -472 0
450 -472 0
449 -474 0
451 -474 0
450 -476 0
451 -476 0
-1 -480 485 0
-485 493 0
-5 -483 489 0
-489 493 0
-493 -497 0
484 -497 0
497 -501 0
-494 -498 0
484 -498 0
498 -501 0
-495 -499 0
484 -499 0
499 -501 0
-496 -500 0
484 -500 0
500 -501 0
497 -507 0
498 -507 0
499 -507 0
497 -509 0
498 -509 0
500 -509 0
497 -511 0
498 -511 0
497 -513 0
499 -513 0
500 -513 0
497 -515 0
499 -515 0
497 -517 0
500 -517 0
-1 -529 534 0
-534 542 0
-5 -532 538 0
-538 542 0
-542 -546 0
533 -546 0
-4 -529 537 0
-537 545 0
-8 -532 541 0
-541 545 0
-545 -549 0
533 -549 0
546 -550 0
-543 -547 0
533 -547 0
547 -550 0
-544 -548 0
533 -548 0
548 -550 0
549 -550 0
546 -556 0
547 -556 0
548 -556 0
546 -558 0
547 -558 0
549 -558 0
546 -560 0
547 -560 0
546 -562 0
548 -562 0
549 -562 0
546 -564 0
548 -564 0
546 -566 0
549 -566 0
547 -568 0
548 -568 0
549 -568 0
547 -572 0
549 -572 0
548 -574 0
549 -574 0
-1 -578 583 0
-583 591 0
-5 -581 587 0
-587 591 0
-591 -595 0
582 -595 0
-3 -578 585 0
-585 593 0
-7 -581 589 0
-589 593 0
-593 -597 0
582 -597 0
595 -599 0
-592 -596 0
582 -596 0
596 -599 0
597 -599 0
-594 -598 0
582 -598 0
598 -599 0
595 -605 0
596 -605 0
597 -605 0
595 -607 0
596 -607 0
598 -607 0
595 -609 0
596 -609 0
595 -611 0
597 -611 0
598 -611 0
595 -613 0
597 -613 0
595 -615 0
598 -615 0
596 -617 0
597 -617 0
598 -617 0
596 -619 0
597 -619 0
597 -623 0
598 -623 0
-15 -625 0
-13 -625 0
-12 -625 0
-9 -625 0
15 13 12 9 625 0
625 -627 0
10 -626 0
11 -626 0
14 -626 0
16 -626 0
-10 -11 -14 -16 626 0
626 -627 0
-625 -626 627 0
-1 -627 632 0
-632 640 0
-23 -628 0
-21 -628 0
-20 -628 0
-17 -628 0
23 21 20 17 628 0
628 -630 0
18 -629 0
19 -629 0
22 -629 0
24 -629 0
-18 -19 -22 -24 629 0
629 -630 0
-628 -629 630 0
-5 -630 636 0
-636 640 0
-640 -644 0
627 630 -631 0
631 -644 0
-3 -627 634 0
-634 642 0
-7 -630 638 0
-638 642 0
-642 -646 0
631 -646 0
-4 -627 635 0
-635 643 0
-8 -630 639 0
-639 643 0
-643 -647 0
631 -647 0
644 -648 0
2 -633 0
627 -633 0
-2 -627 633 0
-633 641 0
6 -637 0
630 -637 0
-6 -630 637 0
-637 641 0
633 637 -641 0
-641 -645 0
631 -645 0
645 -648 0
646 -648 0
647 -648 0
631 -650 0
641 -650 0
644 -654 0
645 -654 0
646 -654 0
644 -656 0
645 -656 0
647 -656 0
644 -658 0
645 -658 0
644 -660 0
646 -660 0
647 -660 0
644 -662 0
646 -662 0
644 -664 0
647 -664 0
645 -666 0
646 -666 0
647 -666 0
645 -668 0
646 -668 0
645 -670 0
647 -670 0
646 -672 0
647 -672 0
-1 -676 681 0
-681 689 0
-5 -679 685 0
-685 689 0
-689 -693 0
680 -693 0
-2 -676 682 0
-682 690 0
-6 -679 686 0
-686 690 0
-690 -694 0
680 -694 0
693 -697 0
694 -697 0
-691 -695 0
680 -695 0
695 -697 0
-692 -696 0
680 -696 0
696 -697 0
693 -703 0
694 -703 0
695 -703 0
693 -705 0
694 -705 0
696 -705 0
693 -707 0
694 -707 0
693 -709 0
695 -709 0
696 -709 0
693 -711 0
695 -711 0
693 -713 0
696 -713 0
694 -715 0
695 -715 0
696 -715 0
694 -717 0
695 -717 0
694 -719 0
696 -719 0
-15 -723 0
-14 -723 0
-11 -723 0
-9 -723 0
15 14 11 9 723 0
723 -725 0
10 -724 0
12 -724 0
13 -724 0
16 -724 0
-10 -12 -13 -16 724 0
724 -725 0
-723 -724 725 0
-1 -725 730 0
-730 738 0
-23 -726 0
-22 -726 0
-19 -726 0
-17 -726 0
23 22 19 17 726 0
726 -728 0
18 -727 0
20 -727 0
21 -727 0
24 -727 0
-18 -20 -21 -24 727 0
727 -728 0
-726 -727 728 0
-5 -728 734 0
-734 738 0
-738 -742 0
725 728 -729 0
729 -742 0
-2 -725 731 0
-731 739 0
-6 -728 735 0
-735 739 0
-739 -743 0
729 -743 0
-4 -725 733 0
-733 741 0
-8 -728 737 0
-737 741 0
-741 -745 0
729 -745 0
742 -746 0
743 -746 0
3 -732 0
725 -732 0
-3 -725 732 0
-732 740 0
7 -736 0
728 -736 0
-7 -728 736 0
-736 740 0
732 736 -740 0
-740 -744 0
729 -744 0
744 -746 0
745 -746 0
729 -749 0
740 -749 0
742 -752 0
743 -752 0
744 -752 0
742 -754 0
743 -754 0
745 -754 0
742 -756 0
743 -756 0
742 -758 0
744 -758 0
745 -758 0
742 -760 0
744 -760 0
742 -762 0
745 -762 0
743 -764 0
744 -764 0
745 -764 0
743 -766 0
744 -766 0
743 -768 0
745 -768 0
744 -770 0
745 -770 0
-16 -772 0
-13 -772 0
-11 -772 0
-9 -772 0
16 13 11 9 772 0
772 -774 0
10 -773 0
12 -773 0
14 -773 0
15 -773 0
-10 -12 -14 -15 773 0
773 -774 0
-772 -773 774 0
-1 -774 779 0
-779 787 0
-24 -775 0
-21 -775 0
-19 -775 0
-17 -775 0
24 21 19 17 775 0
775 -777 0
18 -776 0
20 -776 0
22 -776 0
23 -776 0
-18 -20 -22 -23 776 0
776 -777 0
-775 -776 777 0
-5 -777 783 0
-783 787 0
-787 -791 0
774 777 -778 0
778 -791 0
-2 -774 780 0
-780 788 0
-6 -777 784 0
-784 788 0
-788 -792 0
778 -792 0
-3 -774 781 0
-781 789 0
-7 -777 785 0
-785 789 0
-789 -793 0
778 -793 0
791 -795 0
792 -795 0
793 -795 0
4 -782 0
774 -782 0
-4 -774 782 0
-782 790 0
8 -786 0
777 -786 0
-8 -777 786 0
-786 790 0
782 786 -790 0
-790 -794 0
778 -794 0
794 -795 0
778 -799 0
790 -799 0
791 -801 0
792 -801 0
793 -801 0
791 -803 0
792 -803 0
794 -803 0
791 -805 0
792 -805 0
791 -807 0
793 -807 0
794 -807 0
791 -809 0
793 -809 0
791 -811 0
794 -811 0
792 -813 0
793 -813 0
794 -813 0
792 -815 0
793 -815 0
792 -817 0
794 -817 0
793 -819 0
794 -819 0
-15 -821 0
-13 -821 0
-11 -821 0
-9 -821 0
15 13 11 9 821 0
821 -823 0
10 -822 0
12 -822 0
14 -822 0
16 -822 0
-10 -12 -14 -16 822 0
822 -823 0
-821 -822 823 0
-1 -823 828 0
-828 836 0
-23 -824 0
-21 -824 0
-19 -824 0
-17 -824 0
23 21 19 17 824 0
824 -826 0
18 -825 0
20 -825 0
22 -825 0
24 -825 0
-18 -20 -22 -24 825 0
825 -826 0
-824 -825 826 0
-5 -826 832 0
-832 836 0
-836 -840 0
823 826 -827 0
827 -840 0
-2 -823 829 0
-829 837 0
-6 -826 833 0
-833 837 0
-837 -841 0
827 -841 0
-3 -823 830 0
-830 838 0
-7 -826 834 0
-834 838 0
-838 -842 0
827 -842 0
-4 -823 831 0
-831 839 0
-8 -826 835 0
-835 839 0
-839 -843 0
827 -843 0
840 -844 0
841 -844 0
842 -844 0
843 -844 0
840 -850 0
841 -850 0
842 -850 0
840 -852 0
841 -852 0
843 -852 0
840 -854 0
841 -854 0
840 -856 0
842 -856 0
843 -856 0
840 -858 0
842 -858 0
840 -860 0
843 -860 0
841 -862 0
842 -862 0
843 -862 0
841 -864 0
842 -864 0
841 -866 0
843 -866 0
842 -868 0
843 -868 0
-722 -622 -571 -526 -524 -522 -520 -420 -369 -330 -322 -320 -318 -267 -230 -224 -218 -216 -179 -173 -169 -165 -134 -132 -130 -128 -126 -124 -122 -120 -118 -116 -114 110 111 112 113 157 158 159 160 161 166 170 174 176 180 182 205 207 208 209 211 213 219 221 225 227 231 254 255 256 257 258 262 264 268 270 272 274 276 278 280 302 305 306 308 309 311 313 315 323 325 327 351 353 354 355 357 360 362 364 366 370 372 374 376 378 400 401 403 404 407 409 411 413 415 417 421 423 425 427 449 450 451 452 453 458 460 462 464 466 468 470 472 474 476 497 501 503 504 505 507 509 511 513 515 517 546 549 550 552 553 556 558 560 562 564 566 568 572 574 595 597 599 601 603 605 607 609 611 613 615 617 619 623 644 646 647 648 650 654 656 658 660 662 664 666 668 670 672 693 694 697 700 701 703 705 707 709 711 713 715 717 719 742 743 745 746 749 752 754 756 758 760 762 764 766 768 770 791 792 793 795 799 801 803 805 807 809 811 813 815 817 819 840 841 842 843 844 850 852 854 856 858 860 862 864 866 868 -870 0
870 -871 0
-1 5 -872 0
872 -910 0
-1 -5 873 0
1 5 873 0
-5 5 873 0
-2 6 -874 0
-873 874 -875 0
875 -910 0
-2 -6 876 0
2 6 876 0
-6 6 876 0
-873 -876 877 0
-3 7 -878 0
-877 878 -879 0
879 -910 0
-3 -7 880 0
3 7 880 0
-7 7 880 0
-877 -880 881 0
-4 8 -882 0
-881 882 -883 0
883 -910 0
-4 -8 884 0
4 8 884 0
-8 8 884 0
-881 -884 885 0
-885 50 -886 0
886 -910 0
-9 -17 887 0
9 17 887 0
-17 17 887 0
-885 -887 888 0
-888 51 -889 0
889 -910 0
-10 -18 890 0
10 18 890 0
-18 18 890 0
-888 -890 891 0
-891 52 -892 0
892 -910 0
-11 -19 893 0
11 19 893 0
-19 19 893 0
-891 -893 894 0
-894 53 -895 0
895 -910 0
-12 -20 896 0
12 20 896 0
-20 20 896 0
-894 -896 897 0
-897 54 -898 0
898 -910 0
-13 -21 899 0
13 21 899 0
-21 21 899 0
-897 -899 900 0
-900 55 -901 0
901 -910 0
-14 -22 902 0
14 22 902 0
-22 22 902 0
-900 -902 903 0
-903 56 -904 0
904 -910 0
-15 -23 905 0
15 23 905 0
-23 23 905 0
-903 -905 906 0
-906 57 -907 0
907 -910 0
871 0
910 0
